// --------------------------------------------------------------------------
// Licensed Materials - Property of IBM
//
// 5725-A06 5725-A29 5724-Y48 5724-Y49 5724-Y54 5724-Y55
// Copyright IBM Corporation 1998, 2011. All Rights Reserved.
//
// Note to U.S. Government Users Restricted Rights:
// Use, duplication or disclosure restricted by GSA ADP Schedule
// Contract with IBM Corp.
// --------------------------------------------------------------------------


Org = [
0
0
0
0
0
1
0
0
0
4
2
3
0
2
0
1
4
0
0
0
3
0
0
0
0
2
1
0
0
2
1
3
1
4
0
0
3
1
0
0
0
3
3
2
4
1
0
2
0
1
0
4
2
1
0
4
0
0
0
0
1
2
2
0
1
0
4
0
1
2
0
1
3
4
0
0
4
2
0
1
1
0
0
2
0
1
0
4
0
2
3
0
0
0
2
4
0
1
0
4
0
2
1
1
0
3
0
1
4
0
2
1
0
0
4
0
1
2
0
0
0
3
2
1
0
4
0
0
0
1
0
1
4
2
3
0
3
1
0
0
2
4
3
0
1
0
0
3
1
2
3
4
0
1
0
0
2
0
4
1
3
0
0
2
1
4
2
1
0
3
4
2
1];
